;symbolic execution tree
(push)
(assert (le x3 java.lang.StringBuffer))
(check-sat)
(push)
(assert (le x4 java.lang.String))
(check-sat)
(push)
(assert (le x4 java.lang.String))
(check-sat)
(pop)
(push)
(assert (not (le x4 java.lang.String)))
(check-sat)
(pop)
(push)
(assert (le x2 com.lowagie.text.pdf.MappedRandomAccessFile))
(check-sat)
(push)
(assert (le x6 java.lang.reflect.Field))
(check-sat)
(push)
(assert (le x1 java.lang.String))
(check-sat)
(pop)
(push)
(assert (not (le x1 java.lang.String)))
(check-sat)
(pop)
(pop)
(push)
(assert (not (le x6 java.lang.reflect.Field)))
(check-sat)
(pop)
(pop)
(push)
(assert (not (le x2 com.lowagie.text.pdf.MappedRandomAccessFile)))
(check-sat)
(push)
(assert (le x1 java.lang.Integer))
(check-sat)
(pop)
(push)
(assert (not (le x1 java.lang.Integer)))
(check-sat)
(pop)
(push)
(assert (le x0 java.lang.StringBuffer))
(check-sat)
(push)
(assert (le x5 com.lowagie.text.pdf.PdfObject))
(check-sat)
(pop)
(push)
(assert (not (le x5 com.lowagie.text.pdf.PdfObject)))
(check-sat)
(pop)
(pop)
(push)
(assert (not (le x0 java.lang.StringBuffer)))
(check-sat)
(push)
(assert (le x6 java.lang.Integer))
(check-sat)
(pop)
(push)
(assert (not (le x6 java.lang.Integer)))
(check-sat)
(pop)
(pop)
(push)
(assert (le x0 java.lang.StringBuffer))
(check-sat)
(pop)
(push)
(assert (not (le x0 java.lang.StringBuffer)))
(check-sat)
(pop)
(pop)
(push)
(assert (le x1 java.lang.StringBuffer))
(check-sat)
(pop)
(push)
(assert (not (le x1 java.lang.StringBuffer)))
(check-sat)
(pop)
(push)
(assert (le x5 java.lang.StringBuffer))
(check-sat)
(pop)
(push)
(assert (not (le x5 java.lang.StringBuffer)))
(check-sat)
(push)
(assert (le x0 java.lang.StringBuffer))
(check-sat)
(push)
(assert (le x5 java.lang.StringBuffer))
(check-sat)
(pop)
(push)
(assert (not (le x5 java.lang.StringBuffer)))
(check-sat)
(pop)
(pop)
(push)
(assert (not (le x0 java.lang.StringBuffer)))
(check-sat)
(push)
(assert (le x1 java.lang.StringBuffer))
(check-sat)
(pop)
(push)
(assert (not (le x1 java.lang.StringBuffer)))
(check-sat)
(pop)
(pop)
(push)
(assert (le x4 java.lang.String))
(check-sat)
(pop)
(push)
(assert (not (le x4 java.lang.String)))
(check-sat)
(pop)
(pop)
(push)
(assert (le x2 java.lang.String))
(check-sat)
(pop)
(push)
(assert (not (le x2 java.lang.String)))
(check-sat)
(pop)
(pop)
(push)
(assert (not (le x4 java.lang.String)))
(check-sat)
(push)
(assert (le x0 java.lang.StringBuffer))
(check-sat)
(pop)
(push)
(assert (not (le x0 java.lang.StringBuffer)))
(check-sat)
(push)
(assert (le x2 com.lowagie.text.pdf.PdfDictionary))
(check-sat)
(pop)
(push)
(assert (not (le x2 com.lowagie.text.pdf.PdfDictionary)))
(check-sat)
(pop)
(push)
(assert (le x2 java.lang.StringBuffer))
(check-sat)
(pop)
(push)
(assert (not (le x2 java.lang.StringBuffer)))
(check-sat)
(pop)
(pop)
(push)
(assert (le x1 com.lowagie.text.pdf.ByteBuffer))
(check-sat)
(pop)
(push)
(assert (not (le x1 com.lowagie.text.pdf.ByteBuffer)))
(check-sat)
(pop)
(push)
(assert (le x6 java.lang.StringBuffer))
(check-sat)
(push)
(assert (le x5 java.lang.StringBuffer))
(check-sat)
(push)
(assert (le x5 java.lang.StringBuffer))
(check-sat)
(pop)
(push)
(assert (not (le x5 java.lang.StringBuffer)))
(check-sat)
(pop)
(pop)
(push)
(assert (not (le x5 java.lang.StringBuffer)))
(check-sat)
(pop)
(pop)
(push)
(assert (not (le x6 java.lang.StringBuffer)))
(check-sat)
(pop)
(pop)
(pop)
(push)
(assert (not (le x3 java.lang.StringBuffer)))
(check-sat)
(push)
(assert (le x7 java.lang.StringBuffer))
(check-sat)
(pop)
(push)
(assert (not (le x7 java.lang.StringBuffer)))
(check-sat)
(push)
(assert (le x3 java.lang.StringBuffer))
(check-sat)
(pop)
(push)
(assert (not (le x3 java.lang.StringBuffer)))
(check-sat)
(push)
(assert (not (le x1 com.lowagie.text.pdf.PdfRectangle)))
(check-sat)
(push)
(assert (le x1 com.lowagie.text.pdf.PdfArray))
(check-sat)
(pop)
(pop)
(push)
(assert (le x1 com.lowagie.text.pdf.PdfRectangle))
(check-sat)
(pop)
(pop)
(pop)
(push)
(assert (le x4 java.lang.StringBuffer))
(check-sat)
(pop)
(push)
(assert (not (le x4 java.lang.StringBuffer)))
(check-sat)
(push)
(assert (le x1 com.lowagie.text.pdf.PdfObject))
(check-sat)
(pop)
(push)
(assert (not (le x1 com.lowagie.text.pdf.PdfObject)))
(check-sat)
(push)
(assert (le x2 com.lowagie.text.pdf.PdfObject))
(check-sat)
(pop)
(push)
(assert (not (le x2 com.lowagie.text.pdf.PdfObject)))
(check-sat)
(pop)
(pop)
(push)
(assert (le x6 java.lang.StringBuffer))
(check-sat)
(pop)
(push)
(assert (not (le x6 java.lang.StringBuffer)))
(check-sat)
(push)
(assert (le x0 java.lang.StringBuffer))
(check-sat)
(pop)
(push)
(assert (not (le x0 java.lang.StringBuffer)))
(check-sat)
(pop)
(pop)
(push)
(assert (le x2 java.lang.StringBuffer))
(check-sat)
(push)
(assert (le x0 java.lang.String))
(check-sat)
(pop)
(push)
(assert (not (le x0 java.lang.String)))
(check-sat)
(pop)
(push)
(assert (le x5 java.lang.StringBuffer))
(check-sat)
(pop)
(push)
(assert (not (le x5 java.lang.StringBuffer)))
(check-sat)
(pop)
(push)
(assert (le x0 java.lang.String))
(check-sat)
(pop)
(push)
(assert (not (le x0 java.lang.String)))
(check-sat)
(pop)
(pop)
(push)
(assert (not (le x2 java.lang.StringBuffer)))
(check-sat)
(pop)
(push)
(assert (le x4 java.lang.StringBuffer))
(check-sat)
(pop)
(push)
(assert (not (le x4 java.lang.StringBuffer)))
(check-sat)
(push)
(assert (le x1 java.lang.StringBuffer))
(check-sat)
(push)
(assert (le x6 java.lang.StringBuffer))
(check-sat)
(pop)
(push)
(assert (not (le x6 java.lang.StringBuffer)))
(check-sat)
(pop)
(pop)
(push)
(assert (not (le x1 java.lang.StringBuffer)))
(check-sat)
(pop)
(push)
(assert (le x6 java.lang.StringBuffer))
(check-sat)
(push)
(assert (le x4 java.lang.StringBuffer))
(check-sat)
(pop)
(push)
(assert (not (le x4 java.lang.StringBuffer)))
(check-sat)
(pop)
(pop)
(push)
(assert (not (le x6 java.lang.StringBuffer)))
(check-sat)
(pop)
(push)
(assert (le x4 java.lang.StringBuffer))
(check-sat)
(pop)
(push)
(assert (not (le x4 java.lang.StringBuffer)))
(check-sat)
(pop)
(push)
(assert (le x4 java.lang.StringBuffer))
(check-sat)
(pop)
(push)
(assert (not (le x4 java.lang.StringBuffer)))
(check-sat)
(pop)
(pop)
(pop)
(push)
(assert (le x5 com.lowagie.text.pdf.PdfObject))
(check-sat)
(pop)
(push)
(assert (not (le x5 com.lowagie.text.pdf.PdfObject)))
(check-sat)
(pop)
(push)
(assert (le x2 java.lang.String))
(check-sat)
(push)
(assert (le x7 java.lang.String))
(check-sat)
(push)
(assert (le x0 java.lang.String))
(check-sat)
(pop)
(push)
(assert (not (le x0 java.lang.String)))
(check-sat)
(pop)
(pop)
(push)
(assert (not (le x7 java.lang.String)))
(check-sat)
(push)
(assert (le x0 java.lang.StringBuffer))
(check-sat)
(pop)
(push)
(assert (not (le x0 java.lang.StringBuffer)))
(check-sat)
(pop)
(pop)
(push)
(assert (le x1 java.lang.StringBuffer))
(check-sat)
(pop)
(push)
(assert (not (le x1 java.lang.StringBuffer)))
(check-sat)
(pop)
(pop)
(push)
(assert (not (le x2 java.lang.String)))
(check-sat)
(push)
(assert (le x7 com.lowagie.text.pdf.IntHashtable_currencysign_Entry))
(check-sat)
(pop)
(push)
(assert (not (le x7 com.lowagie.text.pdf.IntHashtable_currencysign_Entry)))
(check-sat)
(pop)
(pop)
(push)
(assert (le x7 java.lang.reflect.Field))
(check-sat)
(push)
(assert (le x3 java.lang.StringBuffer))
(check-sat)
(pop)
(push)
(assert (not (le x3 java.lang.StringBuffer)))
(check-sat)
(push)
(assert (le x5 java.lang.String))
(check-sat)
(pop)
(push)
(assert (not (le x5 java.lang.String)))
(check-sat)
(pop)
(pop)
(push)
(assert (le x1 java.lang.StringBuffer))
(check-sat)
(push)
(assert (le x0 com.lowagie.text.pdf.PdfObject))
(check-sat)
(pop)
(push)
(assert (not (le x0 com.lowagie.text.pdf.PdfObject)))
(check-sat)
(pop)
(push)
(assert (le x6 java.lang.String))
(check-sat)
(pop)
(push)
(assert (not (le x6 java.lang.String)))
(check-sat)
(pop)
(push)
(assert (le x1 java.lang.StringBuffer))
(check-sat)
(pop)
(push)
(assert (not (le x1 java.lang.StringBuffer)))
(check-sat)
(pop)
(pop)
(push)
(assert (not (le x1 java.lang.StringBuffer)))
(check-sat)
(push)
(assert (le x5 java.lang.Integer))
(check-sat)
(pop)
(push)
(assert (not (le x5 java.lang.Integer)))
(check-sat)
(push)
(assert (le x7 java.lang.reflect.Field))
(check-sat)
(pop)
(push)
(assert (not (le x7 java.lang.reflect.Field)))
(check-sat)
(pop)
(pop)
(push)
(assert (le x0 com.lowagie.text.pdf.PdfName))
(check-sat)
(pop)
(push)
(assert (not (le x0 com.lowagie.text.pdf.PdfName)))
(check-sat)
(pop)
(push)
(assert (le x4 java.lang.String))
(check-sat)
(pop)
(push)
(assert (not (le x4 java.lang.String)))
(check-sat)
(pop)
(pop)
(push)
(assert (le x7 java.lang.reflect.Field))
(check-sat)
(push)
(assert (le x0 java.lang.StringBuffer))
(check-sat)
(pop)
(push)
(assert (not (le x0 java.lang.StringBuffer)))
(check-sat)
(pop)
(pop)
(push)
(assert (not (le x7 java.lang.reflect.Field)))
(check-sat)
(pop)
(pop)
(push)
(assert (not (le x7 java.lang.reflect.Field)))
(check-sat)
(pop)
(push)
(assert (le x2 com.lowagie.text.pdf.crypto.ARCFOUREncryption))
(check-sat)
(push)
(assert (le x2 com.lowagie.text.pdf.crypto.ARCFOUREncryption))
(check-sat)
(pop)
(push)
(assert (not (le x2 com.lowagie.text.pdf.crypto.ARCFOUREncryption)))
(check-sat)
(pop)
(pop)
(push)
(assert (not (le x2 com.lowagie.text.pdf.crypto.ARCFOUREncryption)))
(check-sat)
(pop)
(push)
(assert (le x0 com.lowagie.text.pdf.ByteBuffer))
(check-sat)
(push)
(assert (le x0 com.lowagie.text.pdf.ByteBuffer))
(check-sat)
(pop)
(push)
(assert (not (le x0 com.lowagie.text.pdf.ByteBuffer)))
(check-sat)
(pop)
(pop)
(push)
(assert (not (le x0 com.lowagie.text.pdf.ByteBuffer)))
(check-sat)
(pop)
(push)
(assert (not (le x4 org.dom4j.tree.BackedList)))
(check-sat)
(push)
(assert (le x4 java.util.ArrayList))
(check-sat)
(push)
(assert (not (le x4 com.lowagie.text.Phrase)))
(check-sat)
(push)
(assert (not (le x4 com.lowagie.text.Section)))
(check-sat)
(push)
(assert (le x5 com.lowagie.text.pdf.ByteBuffer))
(check-sat)
(push)
(assert (le x7 java.lang.StringBuffer))
(check-sat)
(pop)
(push)
(assert (not (le x7 java.lang.StringBuffer)))
(check-sat)
(push)
(assert (le x6 java.lang.StringBuffer))
(check-sat)
(pop)
(push)
(assert (not (le x6 java.lang.StringBuffer)))
(check-sat)
(pop)
(pop)
(push)
(assert (le x3 java.lang.StringBuffer))
(check-sat)
(pop)
(push)
(assert (not (le x3 java.lang.StringBuffer)))
(check-sat)
(pop)
(pop)
(push)
(assert (not (le x5 com.lowagie.text.pdf.ByteBuffer)))
(check-sat)
(pop)
(push)
(assert (le x1 java.lang.StringBuffer))
(check-sat)
(pop)
(push)
(assert (not (le x1 java.lang.StringBuffer)))
(check-sat)
(pop)
(pop)
(pop)
(pop)
(pop)
(push)
(assert (le x4 com.lowagie.text.Section))
(check-sat)
(push)
(assert (le x3 java.lang.StringBuffer))
(check-sat)
(pop)
(push)
(assert (not (le x3 java.lang.StringBuffer)))
(check-sat)
(pop)
(pop)
(push)
(assert (not (le x4 org.dom4j.tree.ContentListFacade)))
(check-sat)
(push)
(assert (not (le x4 java.util.Vector)))
(check-sat)
(push)
(assert (le x4 java.util.AbstractList))
(check-sat)
(push)
(assert (not (le x4 java.util.ArrayList)))
(check-sat)
(pop)
(pop)
(pop)
(pop)
(push)
(assert (le x4 java.util.Vector))
(check-sat)
(pop)
(push)
(assert (le x4 com.lowagie.text.Phrase))
(check-sat)
(pop)
(push)
(assert (le x4 java.util.HashSet))
(check-sat)
(pop)
(push)
(assert (le x4 com.lowagie.text.Cell))
(check-sat)
(pop)
(push)
(assert (le x4 org.dom4j.tree.ContentListFacade))
(check-sat)
(pop)
(push)
(assert (le x4 java.util.TreeSet))
(check-sat)
(pop)
(push)
(assert (le x4 java.util.LinkedList))
(check-sat)
(pop)
(push)
(assert (le x4 org.dom4j.tree.BackedList))
(check-sat)
(pop)
(push)
(assert (le x4 java.util.AbstractCollection))
(check-sat)
(push)
(assert (not (le x4 java.util.AbstractList)))
(check-sat)
(pop)
(pop)
(push)
(assert (le x3 java.lang.StringBuffer))
(check-sat)
(pop)
(push)
(assert (not (le x3 java.lang.StringBuffer)))
(check-sat)
(pop)
(push)
(assert (le x2 java.lang.StringBuffer))
(check-sat)
(push)
(assert (le x5 java.lang.String))
(check-sat)
(pop)
(push)
(assert (not (le x5 java.lang.String)))
(check-sat)
(push)
(assert (le x4 com.lowagie.text.pdf.PdfObject))
(check-sat)
(pop)
(push)
(assert (not (le x4 com.lowagie.text.pdf.PdfObject)))
(check-sat)
(pop)
(pop)
(push)
(assert (le x6 java.lang.String))
(check-sat)
(push)
(assert (le x2 java.lang.StringBuffer))
(check-sat)
(push)
(assert (le x0 com.lowagie.text.pdf.PdfName))
(check-sat)
(pop)
(push)
(assert (not (le x0 com.lowagie.text.pdf.PdfName)))
(check-sat)
(pop)
(pop)
(push)
(assert (not (le x2 java.lang.StringBuffer)))
(check-sat)
(pop)
(pop)
(push)
(assert (not (le x6 java.lang.String)))
(check-sat)
(pop)
(push)
(assert (le x7 java.lang.StringBuffer))
(check-sat)
(pop)
(push)
(assert (not (le x7 java.lang.StringBuffer)))
(check-sat)
(pop)
(pop)
(push)
(assert (not (le x2 java.lang.StringBuffer)))
(check-sat)
(push)
(assert (le x2 java.lang.StringBuffer))
(check-sat)
(pop)
(push)
(assert (not (le x2 java.lang.StringBuffer)))
(check-sat)
(pop)
(push)
(assert (le x7 java.lang.StringBuffer))
(check-sat)
(pop)
(push)
(assert (not (le x7 java.lang.StringBuffer)))
(check-sat)
(push)
(assert (le x0 java.lang.StringBuffer))
(check-sat)
(pop)
(push)
(assert (not (le x0 java.lang.StringBuffer)))
(check-sat)
(pop)
(pop)
(push)
(assert (le x4 java.lang.StringBuffer))
(check-sat)
(pop)
(push)
(assert (not (le x4 java.lang.StringBuffer)))
(check-sat)
(push)
(assert (le x5 com.lowagie.text.pdf.PdfName))
(check-sat)
(pop)
(push)
(assert (not (le x5 com.lowagie.text.pdf.PdfName)))
(check-sat)
(pop)
(pop)
(pop)
(push)
(assert (le x2 com.lowagie.text.pdf.ByteBuffer))
(check-sat)
(pop)
(push)
(assert (not (le x2 com.lowagie.text.pdf.ByteBuffer)))
(check-sat)
(push)
(assert (le x2 com.lowagie.text.pdf.ByteBuffer))
(check-sat)
(pop)
(push)
(assert (not (le x2 com.lowagie.text.pdf.ByteBuffer)))
(check-sat)
(pop)
(pop)
(push)
(assert (le x3 java.lang.StringBuffer))
(check-sat)
(pop)
(push)
(assert (not (le x3 java.lang.StringBuffer)))
(check-sat)
(push)
(assert (not (le x5 com.lowagie.text.pdf.PdfObject)))
(check-sat)
(pop)
(push)
(assert (le x5 com.lowagie.text.pdf.PdfObject))
(check-sat)
(pop)
(push)
(assert (le x4 java.lang.String))
(check-sat)
(pop)
(push)
(assert (not (le x4 java.lang.String)))
(check-sat)
(pop)
(push)
(assert (le x6 java.lang.reflect.Field))
(check-sat)
(pop)
(push)
(assert (not (le x6 java.lang.reflect.Field)))
(check-sat)
(push)
(assert (le x6 java.lang.reflect.Field))
(check-sat)
(pop)
(push)
(assert (not (le x6 java.lang.reflect.Field)))
(check-sat)
(pop)
(pop)
(push)
(assert (le x7 com.lowagie.text.pdf.PdfObject))
(check-sat)
(pop)
(push)
(assert (not (le x7 com.lowagie.text.pdf.PdfObject)))
(check-sat)
(push)
(assert (le x4 java.lang.StringBuffer))
(check-sat)
(pop)
(push)
(assert (not (le x4 java.lang.StringBuffer)))
(check-sat)
(pop)
(push)
(assert (le x3 java.lang.StringBuffer))
(check-sat)
(pop)
(push)
(assert (not (le x3 java.lang.StringBuffer)))
(check-sat)
(pop)
(pop)
(pop)
(push)
(assert (le x3 java.lang.StringBuffer))
(check-sat)
(pop)
(push)
(assert (not (le x3 java.lang.StringBuffer)))
(check-sat)
(push)
(assert (le x4 java.lang.StringBuffer))
(check-sat)
(pop)
(push)
(assert (not (le x4 java.lang.StringBuffer)))
(check-sat)
(push)
(assert (le x7 java.lang.StringBuffer))
(check-sat)
(pop)
(push)
(assert (not (le x7 java.lang.StringBuffer)))
(check-sat)
(push)
(assert (le x1 java.lang.String))
(check-sat)
(pop)
(push)
(assert (not (le x1 java.lang.String)))
(check-sat)
(pop)
(pop)
(pop)
(push)
(assert (le x2 com.lowagie.text.pdf.ByteBuffer))
(check-sat)
(pop)
(push)
(assert (not (le x2 com.lowagie.text.pdf.ByteBuffer)))
(check-sat)
(pop)
(push)
(assert (le x7 com.lowagie.text.pdf.PdfObject))
(check-sat)
(push)
(assert (le x4 java.lang.String))
(check-sat)
(pop)
(push)
(assert (not (le x4 java.lang.String)))
(check-sat)
(push)
(assert (le x0 java.lang.StringBuffer))
(check-sat)
(pop)
(push)
(assert (not (le x0 java.lang.StringBuffer)))
(check-sat)
(pop)
(pop)
(push)
(assert (le x2 java.lang.StringBuffer))
(check-sat)
(pop)
(push)
(assert (not (le x2 java.lang.StringBuffer)))
(check-sat)
(pop)
(pop)
(push)
(assert (not (le x7 com.lowagie.text.pdf.PdfObject)))
(check-sat)
(push)
(assert (le x2 java.lang.String))
(check-sat)
(pop)
(push)
(assert (not (le x2 java.lang.String)))
(check-sat)
(push)
(assert (le x5 java.lang.Integer))
(check-sat)
(pop)
(push)
(assert (not (le x5 java.lang.Integer)))
(check-sat)
(pop)
(pop)
(push)
(assert (le x7 com.lowagie.text.pdf.PdfObject))
(check-sat)
(pop)
(push)
(assert (not (le x7 com.lowagie.text.pdf.PdfObject)))
(check-sat)
(pop)
(pop)
(push)
(assert (le x5 java.lang.String))
(check-sat)
(pop)
(push)
(assert (not (le x5 java.lang.String)))
(check-sat)
(pop)
(push)
(assert (le x4 java.lang.StringBuffer))
(check-sat)
(pop)
(push)
(assert (not (le x4 java.lang.StringBuffer)))
(check-sat)
(pop)
(push)
(assert (le x1 com.lowagie.text.pdf.ByteBuffer))
(check-sat)
(pop)
(push)
(assert (not (le x1 com.lowagie.text.pdf.ByteBuffer)))
(check-sat)
(push)
(assert (le x2 com.lowagie.text.pdf.ByteBuffer))
(check-sat)
(pop)
(push)
(assert (not (le x2 com.lowagie.text.pdf.ByteBuffer)))
(check-sat)
(pop)
(pop)
(push)
(assert (le x6 java.lang.StringBuffer))
(check-sat)
(pop)
(push)
(assert (not (le x6 java.lang.StringBuffer)))
(check-sat)
(pop)
(push)
(assert (le x7 com.lowagie.text.pdf.PdfObject))
(check-sat)
(pop)
(push)
(assert (not (le x7 com.lowagie.text.pdf.PdfObject)))
(check-sat)
(push)
(assert (le x5 java.lang.String))
(check-sat)
(pop)
(push)
(assert (not (le x5 java.lang.String)))
(check-sat)
(push)
(assert (le x5 java.lang.String))
(check-sat)
(pop)
(push)
(assert (not (le x5 java.lang.String)))
(check-sat)
(pop)
(pop)
(push)
(assert (le x5 java.lang.String))
(check-sat)
(pop)
(push)
(assert (not (le x5 java.lang.String)))
(check-sat)
(pop)
(push)
(assert (le x4 java.lang.StringBuffer))
(check-sat)
(pop)
(push)
(assert (not (le x4 java.lang.StringBuffer)))
(check-sat)
(pop)
(push)
(assert (le x1 java.lang.StringBuffer))
(check-sat)
(pop)
(push)
(assert (not (le x1 java.lang.StringBuffer)))
(check-sat)
(pop)
(pop)
(push)
(assert (le x4 com.lowagie.text.pdf.ByteBuffer))
(check-sat)
(pop)
(push)
(assert (not (le x4 com.lowagie.text.pdf.ByteBuffer)))
(check-sat)
(pop)
(push)
(assert (le x6 org.dom4j.tree.BackedList))
(check-sat)
(pop)
(push)
(assert (le x6 com.lowagie.text.Cell))
(check-sat)
(push)
(assert (le x6 java.util.ArrayList))
(check-sat)
(pop)
(push)
(assert (not (le x6 java.util.ArrayList)))
(check-sat)
(push)
(assert (le x0 java.lang.StringBuffer))
(check-sat)
(pop)
(push)
(assert (not (le x0 java.lang.StringBuffer)))
(check-sat)
(pop)
(push)
(assert (le x4 java.lang.String))
(check-sat)
(pop)
(push)
(assert (not (le x4 java.lang.String)))
(check-sat)
(pop)
(pop)
(push)
(assert (le x3 java.lang.StringBuffer))
(check-sat)
(pop)
(push)
(assert (not (le x3 java.lang.StringBuffer)))
(check-sat)
(pop)
(pop)
(push)
(assert (le x6 java.util.Vector))
(check-sat)
(pop)
(push)
(assert (not (le x6 com.lowagie.text.Phrase)))
(check-sat)
(push)
(assert (le x6 java.util.ArrayList))
(check-sat)
(push)
(assert (not (le x6 com.lowagie.text.Section)))
(check-sat)
(push)
(assert (not (le x6 org.dom4j.tree.BackedList)))
(check-sat)
(push)
(assert (le x2 java.lang.StringBuffer))
(check-sat)
(pop)
(push)
(assert (not (le x2 java.lang.StringBuffer)))
(check-sat)
(pop)
(pop)
(pop)
(pop)
(pop)
(push)
(assert (le x6 java.util.TreeSet))
(check-sat)
(pop)
(push)
(assert (le x6 com.lowagie.text.Section))
(check-sat)
(pop)
(push)
(assert (le x6 org.dom4j.tree.ContentListFacade))
(check-sat)
(pop)
(push)
(assert (le x6 com.lowagie.text.Phrase))
(check-sat)
(pop)
(push)
(assert (le x6 java.util.HashSet))
(check-sat)
(pop)
(push)
(assert (le x6 java.util.AbstractCollection))
(check-sat)
(push)
(assert (not (le x6 java.util.AbstractList)))
(check-sat)
(pop)
(pop)
(push)
(assert (le x6 java.util.LinkedList))
(check-sat)
(pop)
(push)
(assert (le x6 java.util.AbstractList))
(check-sat)
(push)
(assert (not (le x6 org.dom4j.tree.ContentListFacade)))
(check-sat)
(push)
(assert (not (le x6 java.util.ArrayList)))
(check-sat)
(push)
(assert (not (le x6 java.util.Vector)))
(check-sat)
(pop)
(pop)
(pop)
(pop)
(pop)
(push)
(assert (le x6 java.lang.String))
(check-sat)
(pop)
(push)
(assert (not (le x6 java.lang.String)))
(check-sat)
(push)
(assert (le x0 com.lowagie.text.pdf.PdfObject))
(check-sat)
(pop)
(push)
(assert (not (le x0 com.lowagie.text.pdf.PdfObject)))
(check-sat)
(pop)
(push)
(assert (le x0 com.lowagie.text.pdf.PdfObject))
(check-sat)
(push)
(assert (le x3 java.lang.StringBuffer))
(check-sat)
(pop)
(push)
(assert (not (le x3 java.lang.StringBuffer)))
(check-sat)
(push)
(assert (le x0 com.lowagie.text.pdf.PdfObject))
(check-sat)
(pop)
(push)
(assert (not (le x0 com.lowagie.text.pdf.PdfObject)))
(check-sat)
(pop)
(pop)
(push)
(assert (le x3 java.lang.StringBuffer))
(check-sat)
(pop)
(push)
(assert (not (le x3 java.lang.StringBuffer)))
(check-sat)
(pop)
(pop)
(push)
(assert (not (le x0 com.lowagie.text.pdf.PdfObject)))
(check-sat)
(pop)
(push)
(assert (le x3 java.lang.StringBuffer))
(check-sat)
(pop)
(push)
(assert (not (le x3 java.lang.StringBuffer)))
(check-sat)
(pop)
(pop)
(push)
(assert (le x6 com.lowagie.text.pdf.PdfObject))
(check-sat)
(pop)
(push)
(assert (not (le x6 com.lowagie.text.pdf.PdfObject)))
(check-sat)
(push)
(assert (le x3 java.lang.StringBuffer))
(check-sat)
(pop)
(push)
(assert (not (le x3 java.lang.StringBuffer)))
(check-sat)
(pop)
(push)
(assert (le x7 java.lang.StringBuffer))
(check-sat)
(pop)
(push)
(assert (not (le x7 java.lang.StringBuffer)))
(check-sat)
(push)
(assert (le x7 java.lang.StringBuffer))
(check-sat)
(pop)
(push)
(assert (not (le x7 java.lang.StringBuffer)))
(check-sat)
(pop)
(push)
(assert (le x3 java.lang.StringBuffer))
(check-sat)
(pop)
(push)
(assert (not (le x3 java.lang.StringBuffer)))
(check-sat)
(push)
(assert (le x3 java.lang.StringBuffer))
(check-sat)
(pop)
(push)
(assert (not (le x3 java.lang.StringBuffer)))
(check-sat)
(pop)
(pop)
(pop)
(pop)
(push)
(assert (le x2 java.util.LinkedList))
(check-sat)
(pop)
(push)
(assert (not (le x2 java.util.LinkedList)))
(check-sat)
(push)
(assert (le x4 java.lang.StringBuffer))
(check-sat)
(pop)
(push)
(assert (not (le x4 java.lang.StringBuffer)))
(check-sat)
(pop)
(push)
(assert (le x7 java.lang.String))
(check-sat)
(push)
(assert (le x1 java.lang.StringBuffer))
(check-sat)
(pop)
(push)
(assert (not (le x1 java.lang.StringBuffer)))
(check-sat)
(pop)
(pop)
(push)
(assert (not (le x7 java.lang.String)))
(check-sat)
(pop)
(push)
(assert (le x0 java.lang.StringBuffer))
(check-sat)
(pop)
(push)
(assert (not (le x0 java.lang.StringBuffer)))
(check-sat)
(pop)
(push)
(assert (le x2 java.util.LinkedList))
(check-sat)
(pop)
(push)
(assert (not (le x2 java.util.LinkedList)))
(check-sat)
(push)
(assert (le x6 java.lang.StringBuffer))
(check-sat)
(pop)
(push)
(assert (not (le x6 java.lang.StringBuffer)))
(check-sat)
(push)
(assert (le x0 java.lang.String))
(check-sat)
(pop)
(push)
(assert (not (le x0 java.lang.String)))
(check-sat)
(pop)
(push)
(assert (le x3 java.lang.StringBuffer))
(check-sat)
(pop)
(push)
(assert (not (le x3 java.lang.StringBuffer)))
(check-sat)
(pop)
(pop)
(pop)
(push)
(assert (le x3 java.lang.StringBuffer))
(check-sat)
(pop)
(push)
(assert (not (le x3 java.lang.StringBuffer)))
(check-sat)
(pop)
(push)
(assert (le x0 java.lang.reflect.Field))
(check-sat)
(pop)
(push)
(assert (not (le x0 java.lang.reflect.Field)))
(check-sat)
(pop)
(push)
(assert (le x0 java.lang.StringBuffer))
(check-sat)
(pop)
(push)
(assert (not (le x0 java.lang.StringBuffer)))
(check-sat)
(pop)
(pop)
(push)
(assert (le x5 java.lang.String))
(check-sat)
(pop)
(push)
(assert (not (le x5 java.lang.String)))
(check-sat)
(push)
(assert (le x2 com.lowagie.text.pdf.PdfObject))
(check-sat)
(pop)
(push)
(assert (not (le x2 com.lowagie.text.pdf.PdfObject)))
(check-sat)
(pop)
(push)
(assert (le x3 java.lang.StringBuffer))
(check-sat)
(pop)
(push)
(assert (not (le x3 java.lang.StringBuffer)))
(check-sat)
(pop)
(push)
(assert (le x2 java.lang.StringBuffer))
(check-sat)
(push)
(assert (le x4 java.lang.String))
(check-sat)
(pop)
(push)
(assert (not (le x4 java.lang.String)))
(check-sat)
(pop)
(pop)
(push)
(assert (not (le x2 java.lang.StringBuffer)))
(check-sat)
(pop)
(push)
(assert (le x6 java.lang.reflect.Field))
(check-sat)
(pop)
(push)
(assert (not (le x6 java.lang.reflect.Field)))
(check-sat)
(pop)
(push)
(assert (le x5 java.lang.String))
(check-sat)
(pop)
(push)
(assert (not (le x5 java.lang.String)))
(check-sat)
(push)
(assert (le x7 java.lang.reflect.Field))
(check-sat)
(push)
(assert (le x3 java.lang.StringBuffer))
(check-sat)
(pop)
(push)
(assert (not (le x3 java.lang.StringBuffer)))
(check-sat)
(pop)
(pop)
(push)
(assert (not (le x7 java.lang.reflect.Field)))
(check-sat)
(pop)
(pop)
(push)
(assert (le x3 java.lang.StringBuffer))
(check-sat)
(pop)
(push)
(assert (not (le x3 java.lang.StringBuffer)))
(check-sat)
(push)
(assert (le x7 java.lang.StringBuffer))
(check-sat)
(pop)
(push)
(assert (not (le x7 java.lang.StringBuffer)))
(check-sat)
(push)
(assert (le x5 java.lang.String))
(check-sat)
(pop)
(push)
(assert (not (le x5 java.lang.String)))
(check-sat)
(pop)
(pop)
(push)
(assert (le x2 java.lang.String))
(check-sat)
(pop)
(push)
(assert (not (le x2 java.lang.String)))
(check-sat)
(pop)
(push)
(assert (le x4 java.lang.StringBuffer))
(check-sat)
(pop)
(push)
(assert (not (le x4 java.lang.StringBuffer)))
(check-sat)
(push)
(assert (le x6 java.lang.String))
(check-sat)
(pop)
(push)
(assert (not (le x6 java.lang.String)))
(check-sat)
(pop)
(push)
(assert (le x0 com.lowagie.text.pdf.PdfName))
(check-sat)
(pop)
(push)
(assert (not (le x0 com.lowagie.text.pdf.PdfName)))
(check-sat)
(pop)
(pop)
(pop)
(push)
(assert (le x3 java.lang.StringBuffer))
(check-sat)
(pop)
(push)
(assert (not (le x3 java.lang.StringBuffer)))
(check-sat)
(push)
(assert (le x7 java.lang.StringBuffer))
(check-sat)
(pop)
(push)
(assert (not (le x7 java.lang.StringBuffer)))
(check-sat)
(pop)
(pop)
(push)
(assert (le x4 java.lang.StringBuffer))
(check-sat)
(pop)
(push)
(assert (not (le x4 java.lang.StringBuffer)))
(check-sat)
(pop)
(push)
(assert (le x0 java.lang.String))
(check-sat)
(pop)
(push)
(assert (not (le x0 java.lang.String)))
(check-sat)
(pop)
(push)
(assert (le x5 java.lang.String))
(check-sat)
(pop)
(push)
(assert (not (le x5 java.lang.String)))
(check-sat)
(push)
(assert (le x4 java.lang.String))
(check-sat)
(pop)
(push)
(assert (not (le x4 java.lang.String)))
(check-sat)
(pop)
(push)
(assert (le x4 com.lowagie.text.pdf.PdfName))
(check-sat)
(pop)
(push)
(assert (not (le x4 com.lowagie.text.pdf.PdfName)))
(check-sat)
(push)
(assert (le x4 com.lowagie.text.pdf.PdfObject))
(check-sat)
(pop)
(push)
(assert (not (le x4 com.lowagie.text.pdf.PdfObject)))
(check-sat)
(pop)
(pop)
(push)
(assert (le x1 java.lang.StringBuffer))
(check-sat)
(pop)
(push)
(assert (not (le x1 java.lang.StringBuffer)))
(check-sat)
(pop)
(pop)
(push)
(assert (le x0 com.lowagie.text.pdf.PdfObject))
(check-sat)
(pop)
(push)
(assert (not (le x0 com.lowagie.text.pdf.PdfObject)))
(check-sat)
(push)
(assert (le x2 com.lowagie.text.Phrase))
(check-sat)
(pop)
(push)
(assert (le x2 org.dom4j.tree.BackedList))
(check-sat)
(push)
(assert (le x7 java.lang.String))
(check-sat)
(pop)
(push)
(assert (not (le x7 java.lang.String)))
(check-sat)
(pop)
(pop)
(push)
(assert (le x2 org.dom4j.tree.ContentListFacade))
(check-sat)
(push)
(assert (le x5 java.lang.String))
(check-sat)
(pop)
(push)
(assert (not (le x5 java.lang.String)))
(check-sat)
(pop)
(pop)
(push)
(assert (le x2 java.util.ArrayList))
(check-sat)
(push)
(assert (not (le x2 com.lowagie.text.Section)))
(check-sat)
(push)
(assert (not (le x2 org.dom4j.tree.BackedList)))
(check-sat)
(push)
(assert (not (le x2 com.lowagie.text.Phrase)))
(check-sat)
(pop)
(pop)
(pop)
(pop)
(push)
(assert (le x2 java.util.TreeSet))
(check-sat)
(pop)
(push)
(assert (le x2 java.util.Vector))
(check-sat)
(pop)
(push)
(assert (le x2 com.lowagie.text.Cell))
(check-sat)
(pop)
(push)
(assert (le x2 com.lowagie.text.Section))
(check-sat)
(pop)
(push)
(assert (le x2 java.util.HashSet))
(check-sat)
(pop)
(push)
(assert (le x2 java.util.LinkedList))
(check-sat)
(pop)
(push)
(assert (le x2 java.util.AbstractList))
(check-sat)
(push)
(assert (not (le x2 java.util.Vector)))
(check-sat)
(push)
(assert (not (le x2 org.dom4j.tree.ContentListFacade)))
(check-sat)
(push)
(assert (not (le x2 java.util.ArrayList)))
(check-sat)
(pop)
(pop)
(pop)
(pop)
(push)
(assert (le x2 java.util.AbstractCollection))
(check-sat)
(push)
(assert (not (le x2 java.util.AbstractList)))
(check-sat)
(pop)
(pop)
(pop)
(push)
(assert (le x4 java.lang.StringBuffer))
(check-sat)
(pop)
(push)
(assert (not (le x4 java.lang.StringBuffer)))
(check-sat)
(push)
(assert (le x3 java.lang.StringBuffer))
(check-sat)
(pop)
(push)
(assert (not (le x3 java.lang.StringBuffer)))
(check-sat)
(pop)
(pop)
(pop)
(pop)
